benchmarks_vrp/CMT4/tsp_classic/CMT4_11.vrp
NAME: CMT4_11
TYPE: CVRP
COMMENT: 1028.42 - Cluster Nr.11
DIMENSION: 11
CAPACITY: 200
EDGE_WEIGHT_TYPE: EUC_2D
NODE_COORD_TYPE: TWOD_COORDS
NODE_COORD_SECTION: 
11 62 63
6 57 68
5 67 5
1 43 67
3 63 65
2 45 65
10 49 73
4 35 35
9 63 69
8 40 60
7 62 77
DEPOT_SECTION: 
4
-1
DEMAND_SECTION: 
5 25
9 6
4 0
11 17
6 15
10 25
8 21
1 14
2 9
7 20
3 8
EOF
