benchmarks_vrp/CMT4/tsp_classic/CMT4_11.tour
NAME: CMT4_11 solution
TYPE: TOUR
TOUR_SECTION:
4 5 11 3 9 7 6 10 1 2 8 -1
-1
EOF